ciphers.affine_cipher/2_sat.smt2
(set-logic ALL)
(declare-const keyA_VAR Int)
(declare-const keyB_VAR Int)
(declare-const mode_VAR String)
(assert (not (= mode_VAR "encrypt")))
(assert (< keyA_VAR 0))
(check-sat)
(get-value (keyA_VAR))
(get-value (keyB_VAR))
(get-value (mode_VAR))
